
Value of objective function: 1000000000000000019884624838656.00000000

Actual values of the variables:
maximize                    1e+30
bookcase                        0
desk                           39
chair                           9
bedframe                       69
